1626685
0,18,48,22,59,5,10,65,25,54,33,45,42,6,37,66,63,40,29,24,28,4,39,55,31,11,41,2,20,60,23,3,47,1,26,16,8,57,14,7,35,58,15,62,30,21,51,32,56,17,9,13,43,27,49,52,36,61,38,50,34,67,44,64,19,46,12,53,0